NAME : XML100_3163_09
DIMENSION : 101
NB_CLUSTERS : 9
CLUSTERING_ALG : KMeans
CLUSTERING_PARAMS : k(8)
CLUSTERS
1 0
2 1 9 10 34 36 41 42 67 82 83 93 95
3 2 3 5 8 16 25 46 48 54 59 65 72 77 87 90
4 35 47 70 71 73 74 85 91 92 94 98
5 7 13 19 23 32 37 38 39 43 45 57 60 63 78 84
6 4 11 22 26 30 62 66 79 88 97
7 17 24 27 31 51 52 53 58 64 68 75 81 100
8 6 14 15 33 40 56 61 69 76 89
9 12 18 20 21 28 29 44 49 50 55 80 86 96 99
EOF